certificates/rado_a15_c252_N40.drat
17 -38 0
-38 -39 -40 0
35 38 0
d 35 17 38 0
-18 38 0
-19 -36 -39 0
-39 -40 0
d -38 -39 -40 0
17 18 -40 0
18 -40 0
d 17 18 -40 0
-40 0
-18 0
36 0
22 0
-17 0
14 0
20 0
37 0
-38 0
21 0
15 0
35 0
-10 0
-8 0
-9 0
7 0
13 0
28 0
5 0
11 0
26 0
6 0
12 0
27 0
-34 0
-16 0
-1 0
-32 0
-33 0
-39 0
31 0
0
